647.0
639.0
629.0
661.0
652.0
674.0
633.0
652.0
651.0
644.0
635.0
662.0
634.0
645.0
646.0
651.0
656.0
639.0
649.0
650.0
640.0
649.0
647.0
653.0
640.0
638.0
635.0
663.0
651.0
633.0
662.0
670.0
649.0
642.0
646.0
633.0
652.0
640.0
645.0
632.0
666.0
639.0
650.0
651.0
650.0
642.0
655.0
654.0
648.0
632.0
645.0
661.0
644.0
641.0
653.0
647.0
637.0
641.0
644.0
638.0
642.0
636.0
636.0
644.0
642.0
647.0
659.0
654.0
666.0
655.0
656.0
629.0
657.0
631.0
648.0
642.0
651.0
656.0
645.0
634.0
628.0
647.0
644.0
641.0
634.0
656.0
651.0
649.0
658.0
639.0
653.0
647.0
658.0
646.0
658.0
636.0
645.0
650.0
654.0
659.0
33614.0
38061.0
97106.0
15402.0
680.0
680.0
672.0
681.0
2669.0
2642.0
